(set-logic QF_BV)
(set-info :source |Converted by Dunbo Cai. dunbocai@gmail.com|)
(set-info :smt-lib-version 2.0)
(set-info :category "convex body with variables with domain [-15, 15]")
(declare-fun x_0 () (_ BitVec 32))
(declare-fun x_1 () (_ BitVec 32))
(declare-fun x_2 () (_ BitVec 32))
(declare-fun x_3 () (_ BitVec 32))
(declare-fun x_4 () (_ BitVec 32))
(assert (bvsge x_0 (bvsub (_ bv0 32) (_ bv15 32))) )
(assert (bvsle x_0 (_ bv15 32)) )
(assert (bvsge x_1 (bvsub (_ bv0 32) (_ bv15 32))) )
(assert (bvsle x_1 (_ bv15 32)) )
(assert (bvsge x_2 (bvsub (_ bv0 32) (_ bv15 32))) )
(assert (bvsle x_2 (_ bv15 32)) )
(assert (bvsge x_3 (bvsub (_ bv0 32) (_ bv15 32))) )
(assert (bvsle x_3 (_ bv15 32)) )
(assert (bvsge x_4 (bvsub (_ bv0 32) (_ bv15 32))) )
(assert (bvsle x_4 (_ bv15 32)) )
(assert (bvsle (bvadd (bvmul (bvsub (_ bv0 32) (bvsdiv (_ bv4 32) (_ bv1 32) )) x_0 )(bvmul (bvsdiv (_ bv15 32) (_ bv1 32) ) x_1 )(bvmul (bvsdiv (_ bv20 32) (_ bv1 32) ) x_2 )(bvmul (bvsdiv (_ bv100 32) (_ bv1 32) ) x_3 )(bvmul (bvsub (_ bv0 32) (bvsdiv (_ bv8 32) (_ bv1 32) )) x_4 )) (bvmul (bvsub (_ bv0 32) (bvsdiv (_ bv309 32) (_ bv1 32) )) (_ bv1 32) ) )) 
(assert (bvsle (bvadd (bvmul (bvsub (_ bv0 32) (bvsdiv (_ bv180 32) (_ bv1 32) )) x_1 )(bvmul (bvsdiv (_ bv10 32) (_ bv1 32) ) x_2 )(bvmul (bvsdiv (_ bv18 32) (_ bv1 32) ) x_4 )) (bvmul (bvsub (_ bv0 32) (bvsdiv (_ bv64 32) (_ bv1 32) )) (_ bv1 32) ) )) 
(assert (bvsle (bvadd (bvmul (bvsub (_ bv0 32) (bvsdiv (_ bv7 32) (_ bv1 32) )) x_1 )(bvmul (bvsub (_ bv0 32) (bvsdiv (_ bv8 32) (_ bv1 32) )) x_4 )) (bvmul (bvsdiv (_ bv68 32) (_ bv1 32) ) (_ bv1 32) ) )) 
(assert (bvsle (bvadd (bvmul (bvsdiv (_ bv20 32) (_ bv1 32) ) x_0 )(bvmul (bvsdiv (_ bv1 32) (_ bv1 32) ) x_1 )(bvmul (bvsub (_ bv0 32) (bvsdiv (_ bv3 32) (_ bv1 32) )) x_2 )(bvmul (bvsdiv (_ bv25 32) (_ bv1 32) ) x_4 )) (bvmul (bvsdiv (_ bv94 32) (_ bv1 32) ) (_ bv1 32) ) )) 
(assert (bvsle (bvadd (bvmul (bvsdiv (_ bv36 32) (_ bv1 32) ) x_0 )(bvmul (bvsub (_ bv0 32) (bvsdiv (_ bv216 32) (_ bv1 32) )) x_1 )(bvmul (bvsdiv (_ bv64 32) (_ bv1 32) ) x_2 )(bvmul (bvsdiv (_ bv9 32) (_ bv1 32) ) x_3 )) (bvmul (bvsdiv (_ bv539 32) (_ bv1 32) ) (_ bv1 32) ) )) 
(assert (bvsle (bvadd (bvmul (bvsdiv (_ bv9 32) (_ bv1 32) ) x_1 )(bvmul (bvsub (_ bv0 32) (bvsdiv (_ bv360 32) (_ bv1 32) )) x_3 )(bvmul (bvsdiv (_ bv50 32) (_ bv1 32) ) x_4 )) (bvmul (bvsdiv (_ bv2359 32) (_ bv1 32) ) (_ bv1 32) ) )) 
(assert (bvsle (bvadd (bvmul (bvsdiv (_ bv2 32) (_ bv1 32) ) x_0 )(bvmul (bvsdiv (_ bv20 32) (_ bv1 32) ) x_2 )(bvmul (bvsdiv (_ bv5 32) (_ bv1 32) ) x_4 )) (bvmul (bvsdiv (_ bv174 32) (_ bv1 32) ) (_ bv1 32) ) )) 
(assert (bvsle (bvadd (bvmul (bvsdiv (_ bv5 32) (_ bv1 32) ) x_1 )(bvmul (bvsub (_ bv0 32) (bvsdiv (_ bv4 32) (_ bv1 32) )) x_4 )) (bvmul (bvsdiv (_ bv3 32) (_ bv1 32) ) (_ bv1 32) ) )) 
(assert (bvsle (bvadd (bvmul (bvsdiv (_ bv10 32) (_ bv1 32) ) x_2 )(bvmul (bvsub (_ bv0 32) (bvsdiv (_ bv3 32) (_ bv1 32) )) x_3 )) (bvmul (bvsdiv (_ bv55 32) (_ bv1 32) ) (_ bv1 32) ) )) 
(assert (bvsle (bvadd (bvmul (bvsdiv (_ bv81 32) (_ bv1 32) ) x_0 )(bvmul (bvsub (_ bv0 32) (bvsdiv (_ bv4 32) (_ bv1 32) )) x_1 )(bvmul (bvsdiv (_ bv18 32) (_ bv1 32) ) x_2 )(bvmul (bvsub (_ bv0 32) (bvsdiv (_ bv144 32) (_ bv1 32) )) x_3 )(bvmul (bvsub (_ bv0 32) (bvsdiv (_ bv36 32) (_ bv1 32) )) x_4 )) (bvmul (bvsdiv (_ bv968 32) (_ bv1 32) ) (_ bv1 32) ) )) 
(assert (bvsle (bvadd (bvmul (bvsdiv (_ bv96 32) (_ bv1 32) ) x_0 )(bvmul (bvsub (_ bv0 32) (bvsdiv (_ bv56 32) (_ bv1 32) )) x_1 )(bvmul (bvsdiv (_ bv378 32) (_ bv1 32) ) x_2 )(bvmul (bvsdiv (_ bv147 32) (_ bv1 32) ) x_3 )(bvmul (bvsdiv (_ bv105 32) (_ bv1 32) ) x_4 )) (bvmul (bvsub (_ bv0 32) (bvsdiv (_ bv767 32) (_ bv1 32) )) (_ bv1 32) ) )) 
(assert (bvsle (bvadd (bvmul (bvsdiv (_ bv2 32) (_ bv1 32) ) x_0 )(bvmul (bvsub (_ bv0 32) (bvsdiv (_ bv49 32) (_ bv1 32) )) x_1 )(bvmul (bvsdiv (_ bv1 32) (_ bv1 32) ) x_2 )) (bvmul (bvsdiv (_ bv24 32) (_ bv1 32) ) (_ bv1 32) ) )) 
(assert (bvsle (bvadd (bvmul (bvsub (_ bv0 32) (bvsdiv (_ bv12 32) (_ bv1 32) )) x_0 )(bvmul (bvsdiv (_ bv20 32) (_ bv1 32) ) x_1 )(bvmul (bvsub (_ bv0 32) (bvsdiv (_ bv3 32) (_ bv1 32) )) x_3 )) (bvmul (bvsdiv (_ bv23 32) (_ bv1 32) ) (_ bv1 32) ) )) 
(assert (bvsle (bvadd (bvmul (bvsub (_ bv0 32) (bvsdiv (_ bv18 32) (_ bv1 32) )) x_0 )(bvmul (bvsub (_ bv0 32) (bvsdiv (_ bv5 32) (_ bv1 32) )) x_1 )(bvmul (bvsub (_ bv0 32) (bvsdiv (_ bv6 32) (_ bv1 32) )) x_2 )(bvmul (bvsdiv (_ bv20 32) (_ bv1 32) ) x_3 )(bvmul (bvsdiv (_ bv9 32) (_ bv1 32) ) x_4 )) (bvmul (bvsub (_ bv0 32) (bvsdiv (_ bv87 32) (_ bv1 32) )) (_ bv1 32) ) )) 
(assert (bvsle (bvadd (bvmul (bvsub (_ bv0 32) (bvsdiv (_ bv180 32) (_ bv1 32) )) x_0 )(bvmul (bvsub (_ bv0 32) (bvsdiv (_ bv25 32) (_ bv1 32) )) x_1 )(bvmul (bvsdiv (_ bv6 32) (_ bv1 32) ) x_3 )(bvmul (bvsub (_ bv0 32) (bvsdiv (_ bv30 32) (_ bv1 32) )) x_4 )) (bvmul (bvsub (_ bv0 32) (bvsdiv (_ bv85 32) (_ bv1 32) )) (_ bv1 32) ) )) 
(assert (bvsle (bvadd (bvmul (bvsdiv (_ bv20 32) (_ bv1 32) ) x_1 )(bvmul (bvsdiv (_ bv5 32) (_ bv1 32) ) x_3 )(bvmul (bvsub (_ bv0 32) (bvsdiv (_ bv4 32) (_ bv1 32) )) x_4 )) (bvmul (bvsdiv (_ bv2 32) (_ bv1 32) ) (_ bv1 32) ) )) 
(assert (bvsle (bvadd (bvmul (bvsdiv (_ bv400 32) (_ bv1 32) ) x_1 )(bvmul (bvsub (_ bv0 32) (bvsdiv (_ bv45 32) (_ bv1 32) )) x_2 )(bvmul (bvsub (_ bv0 32) (bvsdiv (_ bv24 32) (_ bv1 32) )) x_3 )) (bvmul (bvsdiv (_ bv965 32) (_ bv1 32) ) (_ bv1 32) ) )) 
(assert (bvsle (bvadd (bvmul (bvsub (_ bv0 32) (bvsdiv (_ bv27 32) (_ bv1 32) )) x_0 )(bvmul (bvsub (_ bv0 32) (bvsdiv (_ bv7 32) (_ bv1 32) )) x_2 )(bvmul (bvsub (_ bv0 32) (bvsdiv (_ bv21 32) (_ bv1 32) )) x_3 )) (bvmul (bvsdiv (_ bv184 32) (_ bv1 32) ) (_ bv1 32) ) )) 
(assert (bvsle (bvadd (bvmul (bvsdiv (_ bv48 32) (_ bv1 32) ) x_0 )(bvmul (bvsdiv (_ bv12 32) (_ bv1 32) ) x_1 )(bvmul (bvsub (_ bv0 32) (bvsdiv (_ bv20 32) (_ bv1 32) )) x_2 )(bvmul (bvsub (_ bv0 32) (bvsdiv (_ bv40 32) (_ bv1 32) )) x_3 )(bvmul (bvsub (_ bv0 32) (bvsdiv (_ bv15 32) (_ bv1 32) )) x_4 )) (bvmul (bvsdiv (_ bv586 32) (_ bv1 32) ) (_ bv1 32) ) )) 
(assert (bvsle (bvadd (bvmul (bvsdiv (_ bv15 32) (_ bv1 32) ) x_1 )(bvmul (bvsub (_ bv0 32) (bvsdiv (_ bv64 32) (_ bv1 32) )) x_2 )(bvmul (bvsdiv (_ bv16 32) (_ bv1 32) ) x_3 )) (bvmul (bvsdiv (_ bv39 32) (_ bv1 32) ) (_ bv1 32) ) )) 
(assert (bvsle (bvadd (bvmul (bvsdiv (_ bv4 32) (_ bv1 32) ) x_0 )(bvmul (bvsdiv (_ bv6 32) (_ bv1 32) ) x_2 )(bvmul (bvsdiv (_ bv90 32) (_ bv1 32) ) x_4 )) (bvmul (bvsdiv (_ bv281 32) (_ bv1 32) ) (_ bv1 32) ) )) 

(check-sat)
(exit)